NAME : pr226
TYPE : OP
DIMENSION : 226
COST_LIMIT : 40185
ROUTE_NODES : 126
ROUTE_SCORE : 126
ROUTE_COST : 40165
NODE_SEQUENCE_SECTION
1
2
3
4
5
6
7
9
10
14
15
17
18
19
51
52
53
54
55
56
57
58
59
60
61
62
63
95
87
89
96
97
88
90
98
99
91
92
100
101
93
94
102
144
137
138
146
145
139
140
147
149
141
142
148
150
143
191
192
193
194
195
196
197
198
199
200
201
202
203
204
205
206
207
208
209
210
211
212
213
214
215
216
132
125
124
130
131
123
122
129
127
121
120
128
126
119
118
110
109
117
116
108
107
115
114
106
104
113
112
105
103
111
86
85
84
83
82
81
80
79
78
77
76
75
74
-1
DEPOT_SECTION
1
-1
EOF
